33D32945 STP File, STP Format Version 1.0

SECTION Comment
Name "i640-032-PCST"
Creator "Indaco Biazzo" 
Remark "derived from Incidence graph by Cees Duin"
END

SECTION Graph
Nodes 640
Edges 1280
E 1 180 203.000000
E 1 200 196.000000
E 1 279 189.000000
E 1 296 205.000000
E 1 305 200.000000
E 1 379 201.000000
E 1 392 201.000000
E 1 415 200.000000
E 1 425 190.000000
E 1 435 199.000000
E 1 541 204.000000
E 1 617 207.000000
E 2 261 199.000000
E 3 254 187.000000
E 3 368 198.000000
E 3 587 196.000000
E 3 617 202.000000
E 4 99 203.000000
E 4 404 193.000000
E 4 526 197.000000
E 5 136 197.000000
E 5 237 201.000000
E 6 279 208.000000
E 6 373 192.000000
E 7 382 203.000000
E 8 10 203.000000
E 8 402 200.000000
E 8 450 196.000000
E 9 148 202.000000
E 9 373 200.000000
E 9 471 205.000000
E 10 89 97.000000
E 10 232 102.000000
E 10 370 105.000000
E 10 602 108.000000
E 11 197 110.000000
E 11 321 99.000000
E 11 442 98.000000
E 11 561 99.000000
E 11 576 109.000000
E 12 91 102.000000
E 12 217 98.000000
E 12 366 91.000000
E 12 464 94.000000
E 13 70 103.000000
E 13 118 97.000000
E 14 256 101.000000
E 14 259 98.000000
E 14 387 92.000000
E 14 637 106.000000
E 15 66 103.000000
E 15 74 104.000000
E 15 100 102.000000
E 15 127 98.000000
E 15 190 94.000000
E 15 613 106.000000
E 16 67 95.000000
E 16 240 96.000000
E 16 361 99.000000
E 16 409 99.000000
E 16 578 99.000000
E 16 636 98.000000
E 17 124 96.000000
E 17 259 95.000000
E 17 346 105.000000
E 17 613 94.000000
E 18 158 99.000000
E 18 363 98.000000
E 18 500 92.000000
E 18 562 91.000000
E 18 564 103.000000
E 19 39 101.000000
E 19 158 108.000000
E 19 208 98.000000
E 19 224 92.000000
E 19 241 105.000000
E 19 288 104.000000
E 19 421 94.000000
E 19 446 93.000000
E 20 52 100.000000
E 20 126 98.000000
E 20 140 98.000000
E 20 222 94.000000
E 20 357 96.000000
E 20 586 100.000000
E 20 595 104.000000
E 20 630 91.000000
E 21 38 98.000000
E 21 86 100.000000
E 21 92 97.000000
E 21 202 100.000000
E 21 211 97.000000
E 21 505 97.000000
E 21 508 109.000000
E 21 537 102.000000
E 22 117 95.000000
E 22 536 101.000000
E 23 45 102.000000
E 23 230 101.000000
E 23 297 89.000000
E 24 214 106.000000
E 24 433 99.000000
E 24 572 98.000000
E 25 180 106.000000
E 25 241 96.000000
E 25 317 89.000000
E 26 239 100.000000
E 26 500 104.000000
E 27 293 105.000000
E 27 330 107.000000
E 27 362 89.000000
E 27 396 102.000000
E 27 443 105.000000
E 28 49 100.000000
E 28 54 106.000000
E 28 125 94.000000
E 28 127 96.000000
E 28 178 93.000000
E 28 227 100.000000
E 28 280 94.000000
E 28 435 105.000000
E 28 461 94.000000
E 29 89 104.000000
E 29 186 105.000000
E 29 223 104.000000
E 29 422 93.000000
E 29 437 106.000000
E 29 443 104.000000
E 29 611 92.000000
E 30 56 103.000000
E 30 192 97.000000
E 31 354 107.000000
E 31 429 93.000000
E 31 444 107.000000
E 31 468 94.000000
E 31 617 96.000000
E 32 356 102.000000
E 32 489 98.000000
E 32 617 95.000000
E 33 71 102.000000
E 33 148 100.000000
E 33 303 91.000000
E 33 556 106.000000
E 34 211 99.000000
E 34 348 91.000000
E 35 293 104.000000
E 35 378 103.000000
E 35 452 95.000000
E 35 535 95.000000
E 35 629 100.000000
E 36 128 98.000000
E 36 249 94.000000
E 36 299 112.000000
E 36 321 92.000000
E 36 537 96.000000
E 37 321 107.000000
E 37 550 101.000000
E 38 461 104.000000
E 39 79 90.000000
E 39 177 100.000000
E 40 69 105.000000
E 40 96 100.000000
E 40 354 98.000000
E 40 369 94.000000
E 40 552 96.000000
E 40 576 99.000000
E 41 67 101.000000
E 41 490 105.000000
E 41 607 95.000000
E 42 104 101.000000
E 42 105 95.000000
E 42 129 97.000000
E 42 144 101.000000
E 42 154 105.000000
E 42 229 104.000000
E 42 232 101.000000
E 42 405 105.000000
E 42 416 93.000000
E 42 427 108.000000
E 42 560 99.000000
E 42 612 95.000000
E 43 60 99.000000
E 43 86 105.000000
E 43 160 103.000000
E 43 298 107.000000
E 43 325 105.000000
E 43 328 96.000000
E 43 596 100.000000
E 44 52 95.000000
E 44 69 102.000000
E 44 82 103.000000
E 44 204 109.000000
E 44 252 106.000000
E 44 350 101.000000
E 45 267 107.000000
E 45 417 102.000000
E 46 71 101.000000
E 46 323 87.000000
E 46 376 99.000000
E 47 158 95.000000
E 47 189 93.000000
E 47 244 106.000000
E 47 280 95.000000
E 47 379 94.000000
E 47 495 99.000000
E 47 622 99.000000
E 48 377 92.000000
E 48 486 97.000000
E 48 561 103.000000
E 48 617 100.000000
E 48 620 100.000000
E 49 134 97.000000
E 49 234 109.000000
E 49 592 98.000000
E 50 234 101.000000
E 50 253 103.000000
E 50 295 103.000000
E 50 574 108.000000
E 50 625 94.000000
E 51 254 107.000000
E 51 379 100.000000
E 51 633 104.000000
E 52 504 100.000000
E 53 156 100.000000
E 53 338 97.000000
E 54 158 99.000000
E 54 220 106.000000
E 54 267 93.000000
E 54 490 96.000000
E 54 550 103.000000
E 54 638 100.000000
E 55 133 97.000000
E 55 174 95.000000
E 55 314 90.000000
E 55 362 101.000000
E 55 414 96.000000
E 55 451 104.000000
E 55 584 96.000000
E 56 109 97.000000
E 56 635 100.000000
E 57 268 107.000000
E 57 306 97.000000
E 57 357 94.000000
E 57 358 101.000000
E 57 621 102.000000
E 57 640 100.000000
E 58 84 100.000000
E 58 335 104.000000
E 58 387 104.000000
E 58 463 94.000000
E 58 553 96.000000
E 58 606 104.000000
E 58 614 105.000000
E 59 261 95.000000
E 59 367 97.000000
E 59 497 102.000000
E 59 570 98.000000
E 60 212 100.000000
E 60 234 100.000000
E 60 336 98.000000
E 61 73 108.000000
E 61 372 97.000000
E 61 405 100.000000
E 61 455 98.000000
E 61 577 93.000000
E 61 622 100.000000
E 61 625 106.000000
E 62 577 97.000000
E 62 608 105.000000
E 63 169 101.000000
E 63 269 101.000000
E 63 360 107.000000
E 63 599 98.000000
E 64 155 99.000000
E 64 232 101.000000
E 64 592 101.000000
E 65 338 105.000000
E 66 282 97.000000
E 66 460 103.000000
E 67 193 99.000000
E 67 331 101.000000
E 67 545 101.000000
E 68 122 97.000000
E 68 156 92.000000
E 68 324 98.000000
E 68 484 98.000000
E 69 407 90.000000
E 70 235 100.000000
E 70 572 102.000000
E 70 620 99.000000
E 71 77 101.000000
E 71 265 101.000000
E 71 300 99.000000
E 71 378 100.000000
E 71 523 109.000000
E 71 526 99.000000
E 72 205 98.000000
E 72 326 103.000000
E 72 591 103.000000
E 72 600 101.000000
E 73 208 105.000000
E 73 408 93.000000
E 74 126 95.000000
E 74 260 102.000000
E 74 627 102.000000
E 75 90 100.000000
E 75 252 98.000000
E 75 350 102.000000
E 76 197 105.000000
E 76 536 94.000000
E 77 264 102.000000
E 77 496 98.000000
E 78 164 102.000000
E 78 192 92.000000
E 78 404 98.000000
E 78 475 110.000000
E 79 296 99.000000
E 79 463 101.000000
E 79 520 103.000000
E 80 225 101.000000
E 81 409 103.000000
E 81 449 103.000000
E 81 465 101.000000
E 81 469 108.000000
E 81 522 101.000000
E 81 536 103.000000
E 81 542 101.000000
E 82 233 96.000000
E 82 375 100.000000
E 82 603 87.000000
E 83 211 105.000000
E 83 449 103.000000
E 84 187 100.000000
E 84 304 102.000000
E 85 199 104.000000
E 86 200 110.000000
E 86 354 102.000000
E 87 285 101.000000
E 87 315 96.000000
E 87 440 105.000000
E 87 472 103.000000
E 87 493 99.000000
E 87 533 101.000000
E 88 221 93.000000
E 88 261 96.000000
E 89 131 103.000000
E 89 170 102.000000
E 89 541 98.000000
E 90 91 97.000000
E 90 236 97.000000
E 90 252 110.000000
E 90 503 99.000000
E 91 184 96.000000
E 91 230 94.000000
E 91 293 102.000000
E 91 332 104.000000
E 91 404 100.000000
E 91 636 101.000000
E 92 207 98.000000
E 92 267 101.000000
E 92 288 98.000000
E 92 404 92.000000
E 92 546 92.000000
E 93 118 100.000000
E 93 489 92.000000
E 93 594 100.000000
E 94 187 107.000000
E 94 237 95.000000
E 94 561 90.000000
E 95 394 98.000000
E 95 416 103.000000
E 95 596 101.000000
E 95 624 99.000000
E 96 357 91.000000
E 96 416 100.000000
E 96 585 100.000000
E 97 360 100.000000
E 97 457 108.000000
E 97 608 99.000000
E 97 617 102.000000
E 98 100 102.000000
E 98 102 102.000000
E 98 225 99.000000
E 98 323 96.000000
E 98 545 86.000000
E 99 133 103.000000
E 99 240 91.000000
E 99 523 98.000000
E 99 631 97.000000
E 100 173 96.000000
E 100 210 98.000000
E 101 116 96.000000
E 101 137 96.000000
E 101 418 95.000000
E 101 510 105.000000
E 101 595 98.000000
E 102 225 101.000000
E 102 391 95.000000
E 102 527 89.000000
E 103 108 100.000000
E 104 314 103.000000
E 104 590 105.000000
E 105 623 94.000000
E 106 191 93.000000
E 106 192 100.000000
E 106 409 97.000000
E 106 506 98.000000
E 106 577 107.000000
E 107 275 99.000000
E 107 461 96.000000
E 107 486 106.000000
E 107 599 103.000000
E 108 403 91.000000
E 108 485 99.000000
E 108 600 103.000000
E 109 220 99.000000
E 109 377 100.000000
E 109 475 101.000000
E 110 192 103.000000
E 110 342 101.000000
E 110 400 90.000000
E 111 428 98.000000
E 111 503 98.000000
E 112 284 103.000000
E 112 514 97.000000
E 113 137 99.000000
E 113 270 104.000000
E 113 316 98.000000
E 114 267 105.000000
E 114 285 103.000000
E 114 520 94.000000
E 114 547 95.000000
E 115 141 97.000000
E 115 224 104.000000
E 115 555 94.000000
E 115 565 98.000000
E 116 213 106.000000
E 116 303 99.000000
E 116 387 96.000000
E 116 493 95.000000
E 116 626 107.000000
E 117 277 104.000000
E 117 364 99.000000
E 117 508 103.000000
E 118 185 101.000000
E 118 282 103.000000
E 118 317 94.000000
E 118 516 95.000000
E 118 533 108.000000
E 118 546 106.000000
E 118 613 104.000000
E 119 305 95.000000
E 120 267 101.000000
E 121 322 104.000000
E 121 385 97.000000
E 121 509 103.000000
E 122 246 96.000000
E 122 353 94.000000
E 122 362 94.000000
E 122 397 102.000000
E 122 493 99.000000
E 122 532 106.000000
E 123 178 103.000000
E 123 288 99.000000
E 123 337 95.000000
E 123 365 101.000000
E 123 550 95.000000
E 124 192 109.000000
E 124 316 99.000000
E 124 438 95.000000
E 124 493 88.000000
E 124 578 97.000000
E 125 256 97.000000
E 125 604 99.000000
E 126 138 94.000000
E 126 206 103.000000
E 126 585 103.000000
E 126 622 105.000000
E 127 197 108.000000
E 127 261 97.000000
E 127 596 95.000000
E 128 144 103.000000
E 128 169 98.000000
E 128 227 93.000000
E 128 450 102.000000
E 128 527 105.000000
E 130 226 96.000000
E 130 342 94.000000
E 130 487 90.000000
E 130 614 98.000000
E 131 429 98.000000
E 131 431 102.000000
E 131 440 93.000000
E 131 471 112.000000
E 132 415 103.000000
E 132 554 102.000000
E 133 299 106.000000
E 133 339 103.000000
E 133 401 101.000000
E 133 511 92.000000
E 133 594 95.000000
E 134 161 93.000000
E 134 491 101.000000
E 135 460 97.000000
E 135 481 106.000000
E 135 610 91.000000
E 136 328 93.000000
E 136 478 98.000000
E 136 565 99.000000
E 136 566 107.000000
E 137 152 97.000000
E 137 562 102.000000
E 138 225 98.000000
E 138 440 104.000000
E 138 542 98.000000
E 138 584 98.000000
E 139 148 95.000000
E 139 171 91.000000
E 139 295 100.000000
E 139 577 96.000000
E 139 586 101.000000
E 139 617 99.000000
E 140 288 94.000000
E 140 291 100.000000
E 141 179 90.000000
E 141 330 100.000000
E 141 503 103.000000
E 141 534 94.000000
E 141 604 103.000000
E 142 284 91.000000
E 142 380 115.000000
E 143 328 102.000000
E 143 353 104.000000
E 144 212 98.000000
E 144 397 90.000000
E 144 475 95.000000
E 144 578 94.000000
E 145 267 98.000000
E 145 501 89.000000
E 146 272 106.000000
E 146 469 97.000000
E 146 518 91.000000
E 147 222 102.000000
E 147 446 101.000000
E 148 157 101.000000
E 148 231 100.000000
E 148 420 95.000000
E 148 430 95.000000
E 148 488 105.000000
E 148 561 111.000000
E 149 173 99.000000
E 149 568 95.000000
E 150 261 93.000000
E 151 192 101.000000
E 151 258 102.000000
E 152 535 100.000000
E 153 420 96.000000
E 153 628 100.000000
E 154 373 99.000000
E 154 535 103.000000
E 155 401 92.000000
E 155 512 100.000000
E 155 527 101.000000
E 156 294 102.000000
E 156 367 93.000000
E 156 538 102.000000
E 157 451 104.000000
E 158 324 92.000000
E 158 547 101.000000
E 159 572 91.000000
E 160 244 105.000000
E 160 626 101.000000
E 161 442 104.000000
E 161 450 99.000000
E 162 178 100.000000
E 162 441 98.000000
E 163 411 98.000000
E 164 195 109.000000
E 164 201 98.000000
E 164 344 94.000000
E 165 264 94.000000
E 165 520 100.000000
E 166 171 100.000000
E 166 407 108.000000
E 166 634 104.000000
E 167 247 98.000000
E 168 180 101.000000
E 168 297 95.000000
E 168 579 106.000000
E 170 391 103.000000
E 170 473 100.000000
E 170 556 96.000000
E 171 573 106.000000
E 172 384 98.000000
E 172 481 110.000000
E 172 567 101.000000
E 173 333 97.000000
E 173 356 103.000000
E 173 515 108.000000
E 174 189 98.000000
E 174 316 97.000000
E 175 466 108.000000
E 175 599 104.000000
E 176 448 110.000000
E 176 576 100.000000
E 176 640 100.000000
E 177 300 98.000000
E 178 263 105.000000
E 178 361 103.000000
E 178 445 97.000000
E 178 487 107.000000
E 179 421 103.000000
E 179 476 108.000000
E 179 565 105.000000
E 180 323 104.000000
E 180 416 101.000000
E 180 507 101.000000
E 181 281 110.000000
E 181 359 101.000000
E 181 514 94.000000
E 182 185 101.000000
E 182 252 97.000000
E 183 245 105.000000
E 183 521 97.000000
E 184 500 102.000000
E 184 556 104.000000
E 185 490 101.000000
E 186 247 105.000000
E 186 317 89.000000
E 187 443 92.000000
E 188 392 91.000000
E 188 579 101.000000
E 189 361 99.000000
E 189 447 104.000000
E 190 440 98.000000
E 190 478 97.000000
E 190 572 91.000000
E 191 348 109.000000
E 191 428 98.000000
E 191 466 92.000000
E 191 605 98.000000
E 192 292 96.000000
E 192 417 103.000000
E 192 515 101.000000
E 192 566 105.000000
E 193 244 101.000000
E 193 269 100.000000
E 193 424 107.000000
E 193 575 103.000000
E 194 217 99.000000
E 194 265 106.000000
E 194 431 104.000000
E 194 494 99.000000
E 195 401 96.000000
E 195 482 103.000000
E 196 405 95.000000
E 196 512 102.000000
E 196 615 101.000000
E 197 625 106.000000
E 197 630 93.000000
E 198 455 98.000000
E 199 216 95.000000
E 199 223 111.000000
E 199 288 104.000000
E 199 446 113.000000
E 199 452 91.000000
E 200 306 101.000000
E 200 466 105.000000
E 201 263 104.000000
E 201 359 101.000000
E 201 375 102.000000
E 201 483 104.000000
E 201 551 99.000000
E 203 315 107.000000
E 203 379 99.000000
E 203 467 103.000000
E 203 542 100.000000
E 205 243 97.000000
E 206 349 100.000000
E 206 516 92.000000
E 207 290 93.000000
E 207 355 100.000000
E 207 421 100.000000
E 207 608 96.000000
E 207 621 98.000000
E 208 275 110.000000
E 208 633 98.000000
E 209 216 94.000000
E 209 384 107.000000
E 210 324 107.000000
E 211 484 103.000000
E 211 498 101.000000
E 211 542 98.000000
E 212 291 100.000000
E 212 518 91.000000
E 213 463 96.000000
E 213 548 103.000000
E 214 292 93.000000
E 214 295 99.000000
E 214 367 109.000000
E 214 389 100.000000
E 214 606 95.000000
E 215 251 107.000000
E 215 439 91.000000
E 216 223 100.000000
E 217 243 99.000000
E 217 264 99.000000
E 217 378 99.000000
E 217 438 99.000000
E 217 474 111.000000
E 218 613 104.000000
E 219 334 103.000000
E 219 409 97.000000
E 219 462 101.000000
E 219 495 107.000000
E 219 535 100.000000
E 219 553 98.000000
E 220 379 96.000000
E 220 381 95.000000
E 220 404 99.000000
E 220 540 105.000000
E 221 273 112.000000
E 221 633 99.000000
E 222 227 94.000000
E 222 276 98.000000
E 222 576 105.000000
E 223 485 107.000000
E 224 467 96.000000
E 224 521 97.000000
E 225 617 104.000000
E 226 436 100.000000
E 227 294 106.000000
E 227 295 95.000000
E 227 330 104.000000
E 227 363 104.000000
E 227 388 95.000000
E 227 395 102.000000
E 228 302 93.000000
E 228 402 97.000000
E 229 300 101.000000
E 229 308 93.000000
E 229 318 98.000000
E 229 348 101.000000
E 229 373 93.000000
E 229 386 101.000000
E 230 519 92.000000
E 230 593 103.000000
E 231 384 101.000000
E 231 473 97.000000
E 231 490 95.000000
E 232 455 100.000000
E 232 565 103.000000
E 233 349 98.000000
E 234 552 102.000000
E 235 522 108.000000
E 236 554 104.000000
E 237 638 99.000000
E 238 275 98.000000
E 238 573 96.000000
E 239 282 100.000000
E 239 442 92.000000
E 239 516 96.000000
E 239 564 97.000000
E 240 391 105.000000
E 240 401 98.000000
E 240 441 93.000000
E 241 628 97.000000
E 242 270 102.000000
E 242 509 100.000000
E 242 562 100.000000
E 243 364 90.000000
E 244 443 100.000000
E 245 256 99.000000
E 245 495 96.000000
E 245 617 98.000000
E 246 340 96.000000
E 246 351 98.000000
E 247 287 107.000000
E 247 377 93.000000
E 247 433 99.000000
E 247 512 102.000000
E 247 570 99.000000
E 248 261 98.000000
E 248 477 93.000000
E 248 534 102.000000
E 249 373 99.000000
E 249 446 90.000000
E 249 549 98.000000
E 249 557 89.000000
E 249 579 98.000000
E 250 585 104.000000
E 251 373 103.000000
E 252 296 97.000000
E 252 512 94.000000
E 253 369 98.000000
E 253 439 95.000000
E 253 578 90.000000
E 253 579 100.000000
E 254 282 99.000000
E 254 325 100.000000
E 254 547 104.000000
E 254 579 98.000000
E 254 585 97.000000
E 254 606 93.000000
E 255 439 100.000000
E 255 632 108.000000
E 256 380 95.000000
E 256 431 99.000000
E 256 571 100.000000
E 256 607 103.000000
E 257 409 100.000000
E 258 301 97.000000
E 258 372 98.000000
E 259 267 104.000000
E 259 525 99.000000
E 259 548 104.000000
E 260 590 100.000000
E 261 274 100.000000
E 262 307 109.000000
E 262 599 101.000000
E 263 319 98.000000
E 263 362 110.000000
E 263 425 101.000000
E 264 339 91.000000
E 265 447 93.000000
E 265 575 97.000000
E 266 276 91.000000
E 266 299 90.000000
E 267 298 91.000000
E 267 316 97.000000
E 267 412 95.000000
E 267 528 94.000000
E 268 434 106.000000
E 269 357 101.000000
E 269 360 101.000000
E 269 499 95.000000
E 270 512 100.000000
E 270 574 107.000000
E 270 626 109.000000
E 271 314 102.000000
E 271 441 95.000000
E 271 501 97.000000
E 271 636 94.000000
E 272 288 107.000000
E 273 455 98.000000
E 273 499 96.000000
E 274 463 102.000000
E 274 519 98.000000
E 275 371 95.000000
E 276 498 102.000000
E 277 292 107.000000
E 277 339 100.000000
E 277 379 100.000000
E 278 370 109.000000
E 278 567 100.000000
E 278 636 102.000000
E 279 312 97.000000
E 279 329 95.000000
E 280 481 112.000000
E 280 535 104.000000
E 280 607 102.000000
E 281 379 98.000000
E 282 507 98.000000
E 283 286 98.000000
E 283 427 92.000000
E 284 535 96.000000
E 285 346 100.000000
E 285 404 98.000000
E 285 405 98.000000
E 285 525 107.000000
E 287 338 103.000000
E 287 418 99.000000
E 287 482 103.000000
E 287 577 100.000000
E 288 301 108.000000
E 288 318 96.000000
E 288 404 94.000000
E 288 530 94.000000
E 288 603 91.000000
E 288 605 99.000000
E 289 364 95.000000
E 291 309 100.000000
E 291 443 99.000000
E 292 456 99.000000
E 292 565 102.000000
E 292 604 97.000000
E 293 457 102.000000
E 293 472 97.000000
E 294 296 101.000000
E 294 415 98.000000
E 294 463 101.000000
E 297 514 105.000000
E 297 525 100.000000
E 297 532 102.000000
E 298 594 96.000000
E 301 447 97.000000
E 301 460 94.000000
E 301 555 105.000000
E 302 353 93.000000
E 302 619 109.000000
E 303 384 99.000000
E 304 379 94.000000
E 304 581 108.000000
E 304 602 98.000000
E 305 327 103.000000
E 305 446 99.000000
E 305 543 99.000000
E 306 357 110.000000
E 306 610 105.000000
E 307 342 97.000000
E 307 391 91.000000
E 308 321 99.000000
E 308 385 102.000000
E 308 604 94.000000
E 310 612 97.000000
E 311 338 106.000000
E 312 459 104.000000
E 313 541 97.000000
E 314 386 98.000000
E 314 442 100.000000
E 314 491 102.000000
E 314 515 96.000000
E 315 329 100.000000
E 315 451 101.000000
E 315 483 97.000000
E 315 551 93.000000
E 316 381 106.000000
E 316 614 105.000000
E 317 623 100.000000
E 318 445 103.000000
E 318 484 106.000000
E 318 577 100.000000
E 319 511 95.000000
E 319 636 90.000000
E 320 366 101.000000
E 320 427 104.000000
E 320 507 101.000000
E 321 459 92.000000
E 321 477 103.000000
E 322 323 99.000000
E 322 472 96.000000
E 322 509 95.000000
E 322 562 98.000000
E 323 402 105.000000
E 323 478 104.000000
E 323 533 109.000000
E 325 477 95.000000
E 325 536 96.000000
E 325 540 98.000000
E 325 600 109.000000
E 326 526 101.000000
E 327 341 101.000000
E 328 413 100.000000
E 328 450 109.000000
E 328 522 97.000000
E 328 558 105.000000
E 328 584 105.000000
E 329 424 102.000000
E 329 495 101.000000
E 329 587 97.000000
E 330 537 100.000000
E 330 620 102.000000
E 332 405 95.000000
E 332 427 95.000000
E 332 601 94.000000
E 333 555 93.000000
E 334 347 104.000000
E 334 457 106.000000
E 335 413 96.000000
E 335 607 106.000000
E 336 338 99.000000
E 337 390 98.000000
E 337 493 96.000000
E 338 365 106.000000
E 338 420 100.000000
E 338 560 103.000000
E 338 622 95.000000
E 339 443 98.000000
E 339 446 102.000000
E 340 471 96.000000
E 340 586 99.000000
E 341 448 98.000000
E 342 447 109.000000
E 342 449 102.000000
E 342 496 102.000000
E 342 518 83.000000
E 342 547 106.000000
E 342 609 98.000000
E 343 516 100.000000
E 343 573 101.000000
E 344 516 106.000000
E 345 434 96.000000
E 345 537 99.000000
E 346 381 98.000000
E 347 384 102.000000
E 347 436 86.000000
E 347 479 105.000000
E 347 588 102.000000
E 348 471 89.000000
E 348 601 101.000000
E 348 628 102.000000
E 349 403 95.000000
E 349 453 96.000000
E 350 381 104.000000
E 350 567 98.000000
E 350 619 104.000000
E 351 376 103.000000
E 351 382 105.000000
E 351 580 100.000000
E 352 359 93.000000
E 352 631 102.000000
E 353 374 95.000000
E 353 427 103.000000
E 353 537 98.000000
E 353 640 99.000000
E 354 363 105.000000
E 354 382 104.000000
E 355 613 94.000000
E 356 387 91.000000
E 356 407 110.000000
E 357 383 97.000000
E 357 616 102.000000
E 357 636 95.000000
E 358 382 102.000000
E 358 465 102.000000
E 359 377 100.000000
E 360 395 89.000000
E 360 460 95.000000
E 360 479 91.000000
E 360 633 102.000000
E 361 411 103.000000
E 362 402 101.000000
E 362 494 101.000000
E 362 496 102.000000
E 362 613 100.000000
E 363 470 95.000000
E 363 573 99.000000
E 364 453 97.000000
E 365 480 97.000000
E 365 597 103.000000
E 365 635 103.000000
E 366 599 112.000000
E 366 621 105.000000
E 368 460 96.000000
E 370 398 105.000000
E 370 546 96.000000
E 371 498 99.000000
E 371 585 108.000000
E 372 375 104.000000
E 375 495 87.000000
E 376 534 98.000000
E 377 381 103.000000
E 377 450 107.000000
E 377 623 102.000000
E 379 442 100.000000
E 380 438 104.000000
E 380 523 101.000000
E 380 568 106.000000
E 380 627 88.000000
E 382 390 103.000000
E 382 405 97.000000
E 382 553 100.000000
E 383 482 99.000000
E 383 577 102.000000
E 385 446 105.000000
E 386 622 103.000000
E 387 393 93.000000
E 387 411 103.000000
E 387 518 102.000000
E 387 594 109.000000
E 388 492 96.000000
E 388 621 101.000000
E 389 580 95.000000
E 389 604 97.000000
E 389 623 99.000000
E 390 393 97.000000
E 390 448 99.000000
E 391 515 104.000000
E 391 573 94.000000
E 393 410 103.000000
E 393 454 98.000000
E 393 479 93.000000
E 394 435 89.000000
E 395 400 98.000000
E 395 411 98.000000
E 395 473 109.000000
E 395 583 97.000000
E 395 607 92.000000
E 397 427 99.000000
E 398 454 104.000000
E 399 604 105.000000
E 400 616 100.000000
E 400 634 106.000000
E 402 456 100.000000
E 402 539 101.000000
E 402 571 100.000000
E 403 456 105.000000
E 403 572 101.000000
E 404 537 102.000000
E 405 448 98.000000
E 405 570 101.000000
E 405 617 97.000000
E 406 420 104.000000
E 407 490 97.000000
E 407 533 98.000000
E 408 556 99.000000
E 409 548 104.000000
E 409 559 104.000000
E 409 569 91.000000
E 410 570 88.000000
E 412 420 96.000000
E 412 516 103.000000
E 413 517 101.000000
E 414 500 91.000000
E 414 583 103.000000
E 415 604 106.000000
E 416 494 104.000000
E 419 559 101.000000
E 420 439 93.000000
E 420 482 99.000000
E 421 425 100.000000
E 421 610 103.000000
E 421 639 97.000000
E 422 567 105.000000
E 423 548 89.000000
E 423 612 105.000000
E 423 624 98.000000
E 424 469 100.000000
E 424 471 109.000000
E 425 511 95.000000
E 426 613 109.000000
E 428 471 90.000000
E 429 457 99.000000
E 429 476 96.000000
E 429 493 96.000000
E 430 534 103.000000
E 431 433 103.000000
E 431 587 98.000000
E 431 604 103.000000
E 432 532 104.000000
E 432 539 101.000000
E 434 471 99.000000
E 434 526 94.000000
E 434 604 93.000000
E 435 532 99.000000
E 436 445 95.000000
E 436 549 97.000000
E 437 603 99.000000
E 437 631 91.000000
E 439 587 101.000000
E 440 448 92.000000
E 440 603 102.000000
E 440 631 99.000000
E 441 595 107.000000
E 443 557 96.000000
E 443 604 93.000000
E 445 519 101.000000
E 446 494 107.000000
E 446 538 102.000000
E 446 583 103.000000
E 446 600 95.000000
E 446 617 98.000000
E 447 472 97.000000
E 448 617 98.000000
E 449 624 90.000000
E 450 585 104.000000
E 450 604 101.000000
E 450 633 91.000000
E 453 513 101.000000
E 453 535 94.000000
E 456 479 104.000000
E 458 463 99.000000
E 458 471 99.000000
E 460 617 96.000000
E 461 571 99.000000
E 462 490 99.000000
E 462 611 86.000000
E 463 475 103.000000
E 463 541 96.000000
E 463 617 104.000000
E 464 500 98.000000
E 465 530 104.000000
E 465 568 106.000000
E 465 598 105.000000
E 465 637 99.000000
E 466 537 103.000000
E 466 592 111.000000
E 467 546 102.000000
E 469 471 98.000000
E 470 614 98.000000
E 471 523 92.000000
E 474 550 101.000000
E 475 582 105.000000
E 476 528 106.000000
E 476 608 98.000000
E 479 547 99.000000
E 479 621 103.000000
E 482 484 105.000000
E 483 508 91.000000
E 484 591 99.000000
E 484 593 96.000000
E 485 611 100.000000
E 488 494 102.000000
E 490 529 105.000000
E 490 572 103.000000
E 491 526 101.000000
E 491 528 104.000000
E 492 509 97.000000
E 492 552 101.000000
E 492 612 95.000000
E 494 540 109.000000
E 495 515 96.000000
E 498 532 99.000000
E 498 568 98.000000
E 498 580 101.000000
E 502 597 106.000000
E 504 571 97.000000
E 504 581 96.000000
E 506 508 101.000000
E 508 522 93.000000
E 508 581 110.000000
E 508 611 101.000000
E 509 531 102.000000
E 512 571 96.000000
E 513 542 92.000000
E 513 605 94.000000
E 514 524 89.000000
E 514 613 97.000000
E 516 526 101.000000
E 517 565 95.000000
E 519 566 96.000000
E 522 542 97.000000
E 522 571 103.000000
E 522 582 96.000000
E 522 590 102.000000
E 525 621 96.000000
E 527 629 98.000000
E 528 606 87.000000
E 532 544 102.000000
E 532 605 92.000000
E 535 595 109.000000
E 536 611 104.000000
E 537 626 97.000000
E 540 624 110.000000
E 540 629 110.000000
E 542 543 91.000000
E 542 639 102.000000
E 543 613 100.000000
E 545 593 97.000000
E 546 554 97.000000
E 546 572 100.000000
E 551 571 95.000000
E 551 603 103.000000
E 553 590 99.000000
E 555 569 99.000000
E 556 601 95.000000
E 559 577 104.000000
E 559 592 99.000000
E 563 564 98.000000
E 563 594 102.000000
E 565 606 92.000000
E 565 608 99.000000
E 567 636 100.000000
E 571 575 93.000000
E 572 581 102.000000
E 573 634 101.000000
E 578 588 104.000000
E 578 621 99.000000
E 580 619 93.000000
E 581 620 96.000000
E 583 609 94.000000
E 585 605 100.000000
E 589 631 93.000000
E 593 615 91.000000
E 595 601 101.000000
E 596 600 98.000000
E 601 615 102.000000
E 605 614 103.000000
E 608 619 102.000000
E 618 632 99.000000
END

SECTION Terminals
Terminals 9
TP 1 748.000000
TP 2 116.000000
TP 3 496.000000
TP 4 24.000000
TP 5 8.000000
TP 6 448.000000
TP 7 680.000000
TP 8 420.000000
TP 9 336.000000
END

EOF
